output ["\"output\": {","\"dzn\": ",showJSON(concat(["utk01 = ",let {array [int] of string: X_INTRODUCED_1962_ = [showDzn(X_INTRODUCED_1960_) | X_INTRODUCED_1960_ in index_set(utk01)], array [int] of string: X_INTRODUCED_1963_ = [showDzn(utk01[X_INTRODUCED_1961_]) | X_INTRODUCED_1961_ in index_set(utk01)]} in (show_indexed(X_INTRODUCED_1962_,X_INTRODUCED_1963_)),";\n","utk02 = ",let {array [int] of string: X_INTRODUCED_1966_ = [showDzn(X_INTRODUCED_1964_) | X_INTRODUCED_1964_ in index_set(utk02)], array [int] of string: X_INTRODUCED_1967_ = [showDzn(utk02[X_INTRODUCED_1965_]) | X_INTRODUCED_1965_ in index_set(utk02)]} in (show_indexed(X_INTRODUCED_1966_,X_INTRODUCED_1967_)),";\n","utk03 = ",let {array [int] of string: X_INTRODUCED_1970_ = [showDzn(X_INTRODUCED_1968_) | X_INTRODUCED_1968_ in index_set(utk03)], array [int] of string: X_INTRODUCED_1971_ = [showDzn(utk03[X_INTRODUCED_1969_]) | X_INTRODUCED_1969_ in index_set(utk03)]} in (show_indexed(X_INTRODUCED_1970_,X_INTRODUCED_1971_)),";\n","utk04 = ",let {array [int] of string: X_INTRODUCED_1974_ = [showDzn(X_INTRODUCED_1972_) | X_INTRODUCED_1972_ in index_set(utk04)], array [int] of string: X_INTRODUCED_1975_ = [showDzn(utk04[X_INTRODUCED_1973_]) | X_INTRODUCED_1973_ in index_set(utk04)]} in (show_indexed(X_INTRODUCED_1974_,X_INTRODUCED_1975_)),";\n","utk1 = \n",let {array [int] of string: X_INTRODUCED_1980_ = [X_INTRODUCED_1976_ : showDzn(X_INTRODUCED_1976_) | X_INTRODUCED_1976_ in index_set_1of2(utk1)], array [int] of string: X_INTRODUCED_1981_ = [X_INTRODUCED_1977_ : showDzn(X_INTRODUCED_1977_) | X_INTRODUCED_1977_ in index_set_2of2(utk1)], array [int,int] of string: X_INTRODUCED_1982_ = [(X_INTRODUCED_1978_, X_INTRODUCED_1979_) : showDzn(utk1[X_INTRODUCED_1978_,X_INTRODUCED_1979_]) | X_INTRODUCED_1978_ in index_set_1of2(utk1), X_INTRODUCED_1979_ in index_set_2of2(utk1)]} in (show2d_indexed(X_INTRODUCED_1980_,X_INTRODUCED_1981_,X_INTRODUCED_1982_)),";\n","utk2 = \n",let {array [int] of string: X_INTRODUCED_1987_ = [X_INTRODUCED_1983_ : showDzn(X_INTRODUCED_1983_) | X_INTRODUCED_1983_ in index_set_1of2(utk2)], array [int] of string: X_INTRODUCED_1988_ = [X_INTRODUCED_1984_ : showDzn(X_INTRODUCED_1984_) | X_INTRODUCED_1984_ in index_set_2of2(utk2)], array [int,int] of string: X_INTRODUCED_1989_ = [(X_INTRODUCED_1985_, X_INTRODUCED_1986_) : showDzn(utk2[X_INTRODUCED_1985_,X_INTRODUCED_1986_]) | X_INTRODUCED_1985_ in index_set_1of2(utk2), X_INTRODUCED_1986_ in index_set_2of2(utk2)]} in (show2d_indexed(X_INTRODUCED_1987_,X_INTRODUCED_1988_,X_INTRODUCED_1989_)),";\n","utk3 = \n",let {array [int] of string: X_INTRODUCED_1994_ = [X_INTRODUCED_1990_ : showDzn(X_INTRODUCED_1990_) | X_INTRODUCED_1990_ in index_set_1of2(utk3)], array [int] of string: X_INTRODUCED_1995_ = [X_INTRODUCED_1991_ : showDzn(X_INTRODUCED_1991_) | X_INTRODUCED_1991_ in index_set_2of2(utk3)], array [int,int] of string: X_INTRODUCED_1996_ = [(X_INTRODUCED_1992_, X_INTRODUCED_1993_) : showDzn(utk3[X_INTRODUCED_1992_,X_INTRODUCED_1993_]) | X_INTRODUCED_1992_ in index_set_1of2(utk3), X_INTRODUCED_1993_ in index_set_2of2(utk3)]} in (show2d_indexed(X_INTRODUCED_1994_,X_INTRODUCED_1995_,X_INTRODUCED_1996_)),";\n","utk4 = \n",let {array [int] of string: X_INTRODUCED_2001_ = [X_INTRODUCED_1997_ : showDzn(X_INTRODUCED_1997_) | X_INTRODUCED_1997_ in index_set_1of2(utk4)], array [int] of string: X_INTRODUCED_2002_ = [X_INTRODUCED_1998_ : showDzn(X_INTRODUCED_1998_) | X_INTRODUCED_1998_ in index_set_2of2(utk4)], array [int,int] of string: X_INTRODUCED_2003_ = [(X_INTRODUCED_1999_, X_INTRODUCED_2000_) : showDzn(utk4[X_INTRODUCED_1999_,X_INTRODUCED_2000_]) | X_INTRODUCED_1999_ in index_set_1of2(utk4), X_INTRODUCED_2000_ in index_set_2of2(utk4)]} in (show2d_indexed(X_INTRODUCED_2001_,X_INTRODUCED_2002_,X_INTRODUCED_2003_)),";\n","uSTK = \n",let {array [int] of string: X_INTRODUCED_2008_ = [X_INTRODUCED_2004_ : showDzn(X_INTRODUCED_2004_) | X_INTRODUCED_2004_ in index_set_1of2(uSTK)], array [int] of string: X_INTRODUCED_2009_ = [X_INTRODUCED_2005_ : showDzn(X_INTRODUCED_2005_) | X_INTRODUCED_2005_ in index_set_2of2(uSTK)], array [int,int] of string: X_INTRODUCED_2010_ = [(X_INTRODUCED_2006_, X_INTRODUCED_2007_) : showDzn(uSTK[X_INTRODUCED_2006_,X_INTRODUCED_2007_]) | X_INTRODUCED_2006_ in index_set_1of2(uSTK), X_INTRODUCED_2007_ in index_set_2of2(uSTK)]} in (show2d_indexed(X_INTRODUCED_2008_,X_INTRODUCED_2009_,X_INTRODUCED_2010_)),";\n"])),"}, \"sections\": [\"dzn\"]"];
int: rUpper = 7;
array [1..128] of int: X_INTRODUCED_584_;
array [0..rUpper,0..15] of int: uSTK = array2d(0..7,0..15,X_INTRODUCED_584_);
array [1..128] of int: X_INTRODUCED_455_;
array [0..rUpper,0..15] of int: utk4 = array2d(0..7,0..15,X_INTRODUCED_455_);
array [1..128] of int: X_INTRODUCED_326_;
array [0..rUpper,0..15] of int: utk3 = array2d(0..7,0..15,X_INTRODUCED_326_);
array [1..128] of int: X_INTRODUCED_197_;
array [0..rUpper,0..15] of int: utk2 = array2d(0..7,0..15,X_INTRODUCED_197_);
array [1..128] of int: X_INTRODUCED_68_;
array [0..rUpper,0..15] of int: utk1 = array2d(0..7,0..15,[0,2,0,2,0,2,0,0,0,0,2,0,0,0,0,0,0,0,0,2,0,0,2,0,0,0,2,0,2,0,0,0,0,0,0,2,0,0,0,0,0,0,0,0,2,2,0,2,0,0,2,0,0,0,0,0,2,0,0,0,2,2,0,0,0,0,2,0,0,0,0,0,0,2,0,2,0,2,0,0,0,0,2,0,2,0,0,0,0,0,0,2,0,0,2,0,0,0,0,0,2,2,0,2,0,0,0,2,0,0,0,0,2,0,0,0,2,2,0,0,0,0,2,0,0,0,0,0]);
array [1..16] of int: X_INTRODUCED_51_;
array [0..15] of int: utk04 = array1d(0..15,X_INTRODUCED_51_);
array [1..16] of int: X_INTRODUCED_34_;
array [0..15] of int: utk03 = array1d(0..15,X_INTRODUCED_34_);
array [1..16] of int: X_INTRODUCED_17_;
array [0..15] of int: utk02 = array1d(0..15,X_INTRODUCED_17_);
array [1..16] of int: X_INTRODUCED_0_;
array [0..15] of int: utk01 = array1d(0..15,[0,2,0,2,0,2,0,0,0,0,2,0,0,0,0,0]);
